% File represents an instance of a Composite Structure problem to be solved by a CP framework
% Created on 2025-03-26 10:41:19.694
T = 58;
n = 9;
m = 12;
edges = [(2, 1),
(5, 4),
(7, 8),
(2, 3),
(6, 5),
(9, 8),
(1, 4),
(7, 4),
(2, 5),
(8, 5),
(6, 3),
(9, 6)];
counts = [|14, 24, 14, 2,
|14, 26, 14, 2,
|12, 24, 12, 2,
|14, 20, 14, 2,
|14, 22, 14, 2,
|14, 26, 14, 2,
|14, 24, 14, 4,
|14, 24, 14, 2,
|14, 28, 14, 2|];
